
  22    4
  10   10   10   10

   0   0   0   0   0   4 2 3 6 9 
   6  10  10  10  10   3 7 5 4 
   8  10  10  10  10   3 8 7 5 
  10  10  10  10  10   6 21 18 17 13 12 10 
   9  10  10  10  10   4 15 13 12 11 
   9  10  10  10  10   4 18 17 15 11 
   9  10  10  10  10   4 18 17 15 14 
   4  10  10  10  10   4 21 17 16 13 
   4  10  10  10  10   3 15 13 12 
   2  10  10  10  10   2 15 11 
   8  10  10  10  10   3 20 16 14 
   2  10  10  10  10   2 20 14 
   4  10  10  10  10   1 14 
   8  10  10  10  10   1 19 
   3  10  10  10  10   1 20 
  10  10  10  10  10   1 19 
   9  10  10  10  10   1 19 
   8  10  10  10  10   1 20 
   4  10  10  10  10   1 22
   4  10  10  10  10   1 22
   4  10  10  10  10   1 22
   0   0   0   0   0   0 
